p edges 1323 1890
n 1 1e+20
n 2 2e+20
n 3 2e+20
n 4 1e+20
n 5 1e+20
n 6 1e+20
n 7 2e+20
n 8 2e+20
n 9 1e+20
n 10 1e+20
n 11 1e+20
n 12 2e+20
n 13 2e+20
n 14 1e+20
n 15 1e+20
n 16 1e+20
n 17 2e+20
n 18 1e+20
n 19 1e+20
n 20 1e+20
n 21 2e+20
n 22 2e+20
n 23 1e+20
n 24 1e+20
n 25 1e+20
n 26 2e+20
n 27 2e+20
n 28 1e+20
n 29 1e+20
n 30 1e+20
n 31 2e+20
n 32 2e+20
n 33 1e+20
n 34 1e+20
n 35 1e+20
n 36 2e+20
n 37 2e+20
n 38 1e+20
n 39 1e+20
n 40 1e+20
n 41 2e+20
n 42 2e+20
n 43 1e+20
n 44 1e+20
n 45 1e+20
n 46 2e+20
n 47 2e+20
n 48 1e+20
n 49 1e+20
n 50 1e+20
n 51 2e+20
n 52 2e+20
n 53 1e+20
n 54 1e+20
n 55 1e+20
n 56 2e+20
n 57 2e+20
n 58 1e+20
n 59 1e+20
n 60 1e+20
n 61 2e+20
n 62 2e+20
n 63 1e+20
n 64 1e+20
n 65 1e+20
n 66 2e+20
n 67 2e+20
n 68 1e+20
n 69 1e+20
n 70 1e+20
n 71 2e+20
n 72 2e+20
n 73 1e+20
n 74 1e+20
n 75 1e+20
n 76 2e+20
n 77 2e+20
n 78 1e+20
n 79 1e+20
n 80 1e+20
n 81 2e+20
n 82 2e+20
n 83 1e+20
n 84 1e+20
n 85 1e+20
n 86 2e+20
n 87 1e+20
n 88 1e+20
n 89 1e+20
n 90 2e+20
n 91 1e+20
n 92 1e+20
n 93 1e+20
n 94 2e+20
n 95 2e+20
n 96 1e+20
n 97 1e+20
n 98 1e+20
n 99 2e+20
n 100 2e+20
n 101 1e+20
n 102 1e+20
n 103 1e+20
n 104 2e+20
n 105 2e+20
n 106 1e+20
n 107 1e+20
n 108 1e+20
n 109 2e+20
n 110 2e+20
n 111 1e+20
n 112 1e+20
n 113 1e+20
n 114 2e+20
n 115 2e+20
n 116 1e+20
n 117 1e+20
n 118 1e+20
n 119 2e+20
n 120 2e+20
n 121 1e+20
n 122 1e+20
n 123 1e+20
n 124 2e+20
n 125 2e+20
n 126 1e+20
n 127 1e+20
n 128 1e+20
n 129 2e+20
n 130 2e+20
n 131 1e+20
n 132 1e+20
n 133 1e+20
n 134 2e+20
n 135 1e+20
n 136 1e+20
n 137 1e+20
n 138 2e+20
n 139 1e+20
n 140 1e+20
n 141 1e+20
n 142 2e+20
n 143 2e+20
n 144 1e+20
n 145 1e+20
n 146 1e+20
n 147 2e+20
n 148 2e+20
n 149 1e+20
n 150 1e+20
n 151 1e+20
n 152 2e+20
n 153 2e+20
n 154 1e+20
n 155 1e+20
n 156 1e+20
n 157 2e+20
n 158 1e+20
n 159 1e+20
n 160 1e+20
n 161 2e+20
n 162 2e+20
n 163 1e+20
n 164 1e+20
n 165 1e+20
n 166 2e+20
n 167 2e+20
n 168 1e+20
n 169 1e+20
n 170 3e+20
n 171 2e+20
n 172 2e+20
n 173 2e+20
n 174 2e+20
n 175 1e+20
n 176 2e+20
n 177 2e+20
n 178 1e+20
n 179 1e+20
n 180 1e+20
n 181 2e+20
n 182 2e+20
n 183 1e+20
n 184 1e+20
n 185 1e+20
n 186 2e+20
n 187 1e+20
n 188 1e+20
n 189 1e+20
n 190 2e+20
n 191 2e+20
n 192 1e+20
n 193 1e+20
n 194 1e+20
n 195 1e+20
n 196 1e+20
n 197 1e+20
n 198 2e+20
n 199 2e+20
n 200 1e+20
n 201 1e+20
n 202 1e+20
n 203 2e+20
n 204 1e+20
n 205 1e+20
n 206 1e+20
n 207 2e+20
n 208 2e+20
n 209 1e+20
n 210 1e+20
n 211 1e+20
n 212 2e+20
n 213 1e+20
n 214 1e+20
n 215 1e+20
n 216 2e+20
n 217 1e+20
n 218 1e+20
n 219 1e+20
n 220 2e+20
n 221 2e+20
n 222 1e+20
n 223 1e+20
n 224 1e+20
n 225 2e+20
n 226 1e+20
n 227 1e+20
n 228 1e+20
n 229 1e+20
n 230 1e+20
n 231 3e+20
n 232 2e+20
n 233 2e+20
n 234 2e+20
n 235 2e+20
n 236 1e+20
n 237 2e+20
n 238 2e+20
n 239 1e+20
n 240 1e+20
n 241 1e+20
n 242 2e+20
n 243 2e+20
n 244 1e+20
n 245 1e+20
n 246 1e+20
n 247 2e+20
n 248 1e+20
n 249 1e+20
n 250 2e+20
n 251 1e+20
n 252 1e+20
n 253 2e+20
n 254 2e+20
n 255 1e+20
n 256 1e+20
n 257 1e+20
n 258 2e+20
n 259 2e+20
n 260 1e+20
n 261 1e+20
n 262 1e+20
n 263 2e+20
n 264 2e+20
n 265 1e+20
n 266 1e+20
n 267 1e+20
n 268 2e+20
n 269 1e+20
n 270 1e+20
n 271 1e+20
n 272 1e+20
n 273 1e+20
n 274 1e+20
n 275 2e+20
n 276 2e+20
n 277 1e+20
n 278 1e+20
n 279 1e+20
n 280 2e+20
n 281 2e+20
n 282 1e+20
n 283 1e+20
n 284 1e+20
n 285 2e+20
n 286 1e+20
n 287 1e+20
n 288 1e+20
n 289 2e+20
n 290 2e+20
n 291 1e+20
n 292 1e+20
n 293 1e+20
n 294 2e+20
n 295 2e+20
n 296 1e+20
n 297 1e+20
n 298 1e+20
n 299 2e+20
n 300 1e+20
n 301 1e+20
n 302 1e+20
n 303 2e+20
n 304 1e+20
n 305 1e+20
n 306 1e+20
n 307 2e+20
n 308 2e+20
n 309 1e+20
n 310 1e+20
n 311 1e+20
n 312 2e+20
n 313 2e+20
n 314 1e+20
n 315 1e+20
n 316 1e+20
n 317 2e+20
n 318 1e+20
n 319 1e+20
n 320 1e+20
n 321 2e+20
n 322 1e+20
n 323 1e+20
n 324 2e+20
n 325 2e+20
n 326 1e+20
n 327 1e+20
n 328 2e+20
n 329 1e+20
n 330 1e+20
n 331 1e+20
n 332 2e+20
n 333 2e+20
n 334 1e+20
n 335 1e+20
n 336 2e+20
n 337 7.70576
n 338 1e+20
n 339 1e+20
n 340 9.80807
n 341 1e+20
n 342 1e+20
n 343 2e+20
n 344 2e+20
n 345 1e+20
n 346 1e+20
n 347 2e+20
n 348 1e+20
n 349 1e+20
n 350 1e+20
n 351 2e+20
n 352 1e+20
n 353 1e+20
n 354 1e+20
n 355 2e+20
n 356 1e+20
n 357 1e+20
n 358 1e+20
n 359 2e+20
n 360 1e+20
n 361 1e+20
n 362 1e+20
n 363 2e+20
n 364 1e+20
n 365 1e+20
n 366 1e+20
n 367 2e+20
n 368 1e+20
n 369 1e+20
n 370 1e+20
n 371 2e+20
n 372 2e+20
n 373 1e+20
n 374 1e+20
n 375 1e+20
n 376 2e+20
n 377 1e+20
n 378 1e+20
n 379 1e+20
n 380 2e+20
n 381 1e+20
n 382 1e+20
n 383 1e+20
n 384 2e+20
n 385 1e+20
n 386 1e+20
n 387 2e+20
n 388 2e+20
n 389 1e+20
n 390 1e+20
n 391 1e+20
n 392 1e+20
n 393 1e+20
n 394 1e+20
n 395 1e+20
n 396 1e+20
n 397 2e+20
n 398 1e+20
n 399 1e+20
n 400 1e+20
n 401 2e+20
n 402 2e+20
n 403 1e+20
n 404 1e+20
n 405 1e+20
n 406 2e+20
n 407 1e+20
n 408 1e+20
n 409 1e+20
n 410 2e+20
n 411 1e+20
n 412 1e+20
n 413 1e+20
n 414 1e+20
n 415 1e+20
n 416 1e+20
n 417 1e+20
n 418 1e+20
n 419 1e+20
n 420 2e+20
n 421 1e+20
n 422 1e+20
n 423 1e+20
n 424 2e+20
n 425 1e+20
n 426 1e+20
n 427 1e+20
n 428 2e+20
n 429 1e+20
n 430 1e+20
n 431 3e+20
n 432 2e+20
n 433 2e+20
n 434 2e+20
n 435 2e+20
n 436 1e+20
n 437 1e+20
n 438 1e+20
n 439 3e+20
n 440 2e+20
n 441 2e+20
n 442 2e+20
n 443 1e+20
n 444 1e+20
n 445 1e+20
n 446 1e+20
n 447 2e+20
n 448 1e+20
n 449 1e+20
n 450 3e+20
n 451 2e+20
n 452 2e+20
n 453 1e+20
n 454 2e+20
n 455 1e+20
n 456 1e+20
n 457 1e+20
n 458 2e+20
n 459 1e+20
n 460 1e+20
n 461 1e+20
n 462 2e+20
n 463 2e+20
n 464 1e+20
n 465 1e+20
n 466 1e+20
n 467 2e+20
n 468 1e+20
n 469 1e+20
n 470 1e+20
n 471 2e+20
n 472 1e+20
n 473 1e+20
n 474 1e+20
n 475 2e+20
n 476 1e+20
n 477 1e+20
n 478 1e+20
n 479 2e+20
n 480 1e+20
n 481 1e+20
n 482 3e+20
n 483 2e+20
n 484 2e+20
n 485 2e+20
n 486 1e+20
n 487 1e+20
n 488 1e+20
n 489 1e+20
n 490 2e+20
n 491 1e+20
n 492 1e+20
n 493 3e+20
n 494 2e+20
n 495 2e+20
n 496 1e+20
n 497 1e+20
n 498 1e+20
n 499 1e+20
n 500 2e+20
n 501 2e+20
n 502 1e+20
n 503 1e+20
n 504 1e+20
n 505 1e+20
n 506 1e+20
n 507 1e+20
n 508 2e+20
n 509 1e+20
n 510 1e+20
n 511 1e+20
n 512 2e+20
n 513 1e+20
n 514 1e+20
n 515 1e+20
n 516 2e+20
n 517 1e+20
n 518 1e+20
n 519 1e+20
n 520 1e+20
n 521 1e+20
n 522 1e+20
n 523 2e+20
n 524 1e+20
n 525 1e+20
n 526 1e+20
n 527 2e+20
n 528 2e+20
n 529 1e+20
n 530 1e+20
n 531 1e+20
n 532 2e+20
n 533 2e+20
n 534 1e+20
n 535 1e+20
n 536 1e+20
n 537 2e+20
n 538 1e+20
n 539 1e+20
n 540 1e+20
n 541 2e+20
n 542 1e+20
n 543 1e+20
n 544 1e+20
n 545 2e+20
n 546 1e+20
n 547 1e+20
n 548 1e+20
n 549 1e+20
n 550 1e+20
n 551 1e+20
n 552 2e+20
n 553 2e+20
n 554 1e+20
n 555 1e+20
n 556 1e+20
n 557 2e+20
n 558 1e+20
n 559 1e+20
n 560 1e+20
n 561 2e+20
n 562 1e+20
n 563 1e+20
n 564 1e+20
n 565 1e+20
n 566 1e+20
n 567 1e+20
n 568 1e+20
n 569 1e+20
n 570 1e+20
n 571 1e+20
n 572 1e+20
n 573 1e+20
n 574 2e+20
n 575 1e+20
n 576 1e+20
n 577 1e+20
n 578 1e+20
n 579 1e+20
n 580 1e+20
n 581 2e+20
n 582 1e+20
n 583 1e+20
n 584 1e+20
n 585 1e+20
n 586 1e+20
n 587 1e+20
n 588 1e+20
n 589 1e+20
n 590 1e+20
n 591 1e+20
n 592 1e+20
n 593 1e+20
n 594 2e+20
n 595 1e+20
n 596 1e+20
n 597 1e+20
n 598 2e+20
n 599 2e+20
n 600 1e+20
n 601 1e+20
n 602 1e+20
n 603 1e+20
n 604 1e+20
n 605 1e+20
n 606 2e+20
n 607 1e+20
n 608 1e+20
n 609 2e+20
n 610 2e+20
n 611 1e+20
n 612 1e+20
n 613 1e+20
n 614 1e+20
n 615 1e+20
n 616 1e+20
n 617 1e+20
n 618 1e+20
n 619 1e+20
n 620 1e+20
n 621 1e+20
n 622 2e+20
n 623 1e+20
n 624 1e+20
n 625 1e+20
n 626 2e+20
n 627 1e+20
n 628 1e+20
n 629 1e+20
n 630 1e+20
n 631 1e+20
n 632 1e+20
n 633 2e+20
n 634 1e+20
n 635 1e+20
n 636 1e+20
n 637 2e+20
n 638 1e+20
n 639 1e+20
n 640 1e+20
n 641 1e+20
n 642 1e+20
n 643 1e+20
n 644 1e+20
n 645 1e+20
n 646 1e+20
n 647 2e+20
n 648 1e+20
n 649 1e+20
n 650 1e+20
n 651 1e+20
n 652 1e+20
n 653 1e+20
n 654 1e+20
n 655 1e+20
n 656 1e+20
n 657 1e+20
n 658 1e+20
n 659 1e+20
n 660 1e+20
n 661 1e+20
n 662 1e+20
n 663 1e+20
n 664 1e+20
n 665 1e+20
n 666 2e+20
n 667 2e+20
n 668 1e+20
n 669 1e+20
n 670 1e+20
n 671 1e+20
n 672 1e+20
n 673 1e+20
n 674 1e+20
n 675 1e+20
n 676 1e+20
n 677 2e+20
n 678 1e+20
n 679 1e+20
n 680 3e+20
n 681 2e+20
n 682 2e+20
n 683 1e+20
n 684 2e+20
n 685 1e+20
n 686 1e+20
n 687 1e+20
n 688 2e+20
n 689 2e+20
n 690 1e+20
n 691 1e+20
n 692 1e+20
n 693 1e+20
n 694 1e+20
n 695 1e+20
n 696 2e+20
n 697 1e+20
n 698 1e+20
n 699 1e+20
n 700 1e+20
n 701 1e+20
n 702 1e+20
n 703 1e+20
n 704 1e+20
n 705 1e+20
n 706 1e+20
n 707 1e+20
n 708 1e+20
n 709 2e+20
n 710 1e+20
n 711 1e+20
n 712 1e+20
n 713 2e+20
n 714 1e+20
n 715 1e+20
n 716 1e+20
n 717 1e+20
n 718 1e+20
n 719 1e+20
n 720 1e+20
n 721 1e+20
n 722 1e+20
n 723 1e+20
n 724 1e+20
n 725 1e+20
n 726 1e+20
n 727 1e+20
n 728 1e+20
n 729 1e+20
n 730 1e+20
n 731 1e+20
n 732 1e+20
n 733 1e+20
n 734 2e+20
n 735 1e+20
n 736 1e+20
n 737 1e+20
n 738 1e+20
n 739 1e+20
n 740 1e+20
n 741 1e+20
n 742 1e+20
n 743 1e+20
n 744 1e+20
n 745 1e+20
n 746 1e+20
n 747 1e+20
n 748 2e+20
n 749 1e+20
n 750 1e+20
n 751 1e+20
n 752 1e+20
n 753 1e+20
n 754 1e+20
n 755 1e+20
n 756 1e+20
n 757 1e+20
n 758 1e+20
n 759 1e+20
n 760 0.693147
n 761 1e+20
n 762 0.510826
n 763 1e+20
n 764 0.105361
n 765 1e+20
n 766 2.30259
n 767 1e+20
n 768 0.105361
n 769 1e+20
n 770 0.105361
n 771 1e+20
n 772 0.116534
n 773 1e+20
n 774 1.60944
n 775 1e+20
n 776 0.105361
n 777 1e+20
n 778 0.223144
n 779 1e+20
n 780 0.105361
n 781 1e+20
n 782 0.105361
n 783 1e+20
n 784 0.223144
n 785 1e+20
n 786 0.693147
n 787 1e+20
n 788 0.693147
n 789 1e+20
n 790 1.20397
n 791 1e+20
n 792 0.916291
n 793 1e+20
n 794 1.20397
n 795 1e+20
n 796 0.223144
n 797 1e+20
n 798 0.105361
n 799 1e+20
n 800 0.693147
n 801 1e+20
n 802 0.105361
n 803 1e+20
n 804 0.116534
n 805 1e+20
n 806 0.693147
n 807 1e+20
n 808 0.116534
n 809 1e+20
n 810 0.223144
n 811 1e+20
n 812 0.693147
n 813 1e+20
n 814 0.916291
n 815 1e+20
n 816 0.693147
n 817 1e+20
n 818 2.30259
n 819 1e+20
n 820 4.60517
n 821 1e+20
n 822 0.105361
n 823 1e+20
n 824 0.105361
n 825 1e+20
n 826 1.20397
n 827 1e+20
n 828 0.693147
n 829 2e+20
n 830 1e+20
n 831 1e+20
n 832 0.223144
n 833 1e+20
n 834 0.116534
n 835 1e+20
n 836 1.20397
n 837 1e+20
n 838 0.116534
n 839 1e+20
n 840 0.693147
n 841 1e+20
n 842 0.105361
n 843 1e+20
n 844 0.105361
n 845 1e+20
n 846 0.693147
n 847 1e+20
n 848 0.105361
n 849 1e+20
n 850 4.60517
n 851 1e+20
n 852 0.116534
n 853 1e+20
n 854 0.105361
n 855 1e+20
n 856 0.693147
n 857 2e+20
n 858 1e+20
n 859 1e+20
n 860 2.99573
n 861 1e+20
n 862 0.105361
n 863 1e+20
n 864 0.0618754
n 865 1e+20
n 866 0.287682
n 867 1e+20
n 868 0.494296
n 869 1e+20
n 870 0.105361
n 871 1e+20
n 872 0.105361
n 873 1e+20
n 874 2.30259
n 875 1e+20
n 876 0.693147
n 877 1e+20
n 878 0.693147
n 879 1e+20
n 880 0.510826
n 881 1e+20
n 882 0.150823
n 883 1e+20
n 884 1.20397
n 885 1e+20
n 886 0.105361
n 887 1e+20
n 888 0.223144
n 889 1e+20
n 890 0.116534
n 891 1e+20
n 892 0.693147
n 893 1e+20
n 894 4.60517
n 895 1e+20
n 896 0.105361
n 897 1e+20
n 898 0.693147
n 899 1e+20
n 900 0.693147
n 901 1e+20
n 902 0.105361
n 903 1e+20
n 904 0.693147
n 905 1e+20
n 906 1e+20
n 907 1e+20
n 908 0.693147
n 909 1e+20
n 910 0.105361
n 911 1e+20
n 912 2.40795
n 913 1e+20
n 914 0.116534
n 915 1e+20
n 916 0.105361
n 917 1e+20
n 918 0.235722
n 919 1e+20
n 920 1.20397
n 921 1e+20
n 922 1.60944
n 923 1e+20
n 924 0.693147
n 925 1e+20
n 926 1.20397
n 927 1e+20
n 928 0.693147
n 929 1e+20
n 930 0.693147
n 931 1e+20
n 932 0.223144
n 933 1e+20
n 934 0.693147
n 935 1e+20
n 936 0.356675
n 937 3.4761
n 938 1e+20
n 939 1e+20
n 940 0.693147
n 941 1e+20
n 942 0.105361
n 943 1e+20
n 944 0.693147
n 945 1e+20
n 946 0.105361
n 947 1e+20
n 948 0.116534
n 949 1e+20
n 950 0.105361
n 951 1e+20
n 952 0.116534
n 953 1e+20
n 954 0.223144
n 955 2e+20
n 956 1e+20
n 957 1e+20
n 958 4.60517
n 959 2e+20
n 960 1e+20
n 961 1e+20
n 962 1.20397
n 963 1e+20
n 964 0.116534
n 965 2e+20
n 966 1e+20
n 967 1e+20
n 968 1.20397
n 969 1e+20
n 970 2.30259
n 971 1e+20
n 972 2.30259
n 973 1e+20
n 974 1.20397
n 975 1e+20
n 976 0.693147
n 977 1e+20
n 978 1.20397
n 979 1e+20
n 980 0.105361
n 981 2e+20
n 982 1e+20
n 983 1e+20
n 984 1.20397
n 985 1e+20
n 986 0.693147
n 987 2e+20
n 988 1e+20
n 989 1e+20
n 990 0.693147
n 991 1e+20
n 992 0.693147
n 993 1e+20
n 994 2.30259
n 995 1e+20
n 996 0.693147
n 997 1e+20
n 998 0.693147
n 999 1e+20
n 1000 0.105361
n 1001 1e+20
n 1002 0.693147
n 1003 1e+20
n 1004 0.693147
n 1005 1e+20
n 1006 0.116534
n 1007 1e+20
n 1008 0.105361
n 1009 1e+20
n 1010 0.105361
n 1011 1e+20
n 1012 0.105361
n 1013 1e+20
n 1014 2.30259
n 1015 1e+20
n 1016 0.223144
n 1017 1e+20
n 1018 0.105361
n 1019 1e+20
n 1020 1.20397
n 1021 1e+20
n 1022 0.105361
n 1023 1e+20
n 1024 0.116534
n 1025 1e+20
n 1026 0.693147
n 1027 1e+20
n 1028 0.0618754
n 1029 1e+20
n 1030 0.105361
n 1031 1e+20
n 1032 0.693147
n 1033 1e+20
n 1034 0.105361
n 1035 1e+20
n 1036 0.116534
n 1037 1e+20
n 1038 0.105361
n 1039 1e+20
n 1040 0.693147
n 1041 1e+20
n 1042 1.20397
n 1043 1e+20
n 1044 0.105361
n 1045 1e+20
n 1046 2.99573
n 1047 1e+20
n 1048 0.916291
n 1049 1e+20
n 1050 0.693147
n 1051 1e+20
n 1052 0.105361
n 1053 1e+20
n 1054 0.105361
n 1055 1e+20
n 1056 0.162519
n 1057 1e+20
n 1058 2.99573
n 1059 1e+20
n 1060 0.105361
n 1061 1e+20
n 1062 0.105361
n 1063 1e+20
n 1064 0.223144
n 1065 1e+20
n 1066 0.693147
n 1067 1e+20
n 1068 1.60944
n 1069 1e+20
n 1070 0.105361
n 1071 1e+20
n 1072 0.693147
n 1073 1e+20
n 1074 0.223144
n 1075 1e+20
n 1076 0.223144
n 1077 1e+20
n 1078 0.693147
n 1079 1e+20
n 1080 2.99573
n 1081 1e+20
n 1082 0.105361
n 1083 1e+20
n 1084 0.105361
n 1085 1e+20
n 1086 1.60944
n 1087 1e+20
n 1088 0.105361
n 1089 1e+20
n 1090 4.60517
n 1091 2e+20
n 1092 1e+20
n 1093 1e+20
n 1094 0.693147
n 1095 1e+20
n 1096 1.20397
n 1097 1e+20
n 1098 0.223144
n 1099 1e+20
n 1100 2.30259
n 1101 1e+20
n 1102 0.693147
n 1103 1e+20
n 1104 0.105361
n 1105 1e+20
n 1106 3.91202
n 1107 1e+20
n 1108 0.116534
n 1109 1e+20
n 1110 0.0618754
n 1111 1e+20
n 1112 0.693147
n 1113 1e+20
n 1114 1.20397
n 1115 1e+20
n 1116 0.105361
n 1117 1e+20
n 1118 2.99573
n 1119 1e+20
n 1120 0.0618754
n 1121 1e+20
n 1122 0.223144
n 1123 1e+20
n 1124 1.60944
n 1125 1e+20
n 1126 0.105361
n 1127 1e+20
n 1128 0.116534
n 1129 1e+20
n 1130 0.105361
n 1131 1e+20
n 1132 0.223144
n 1133 1e+20
n 1134 0.693147
n 1135 1e+20
n 1136 0.105361
n 1137 3.4761
n 1138 1e+20
n 1139 1e+20
n 1140 0.916291
n 1141 1e+20
n 1142 0.105361
n 1143 1e+20
n 1144 1e+20
n 1145 1e+20
n 1146 1e+20
n 1147 1e+20
n 1148 1e+20
n 1149 1e+20
n 1150 1e+20
n 1151 1e+20
n 1152 1e+20
n 1153 1e+20
n 1154 1e+20
n 1155 1e+20
n 1156 1e+20
n 1157 1e+20
n 1158 1e+20
n 1159 1e+20
n 1160 1e+20
n 1161 1e+20
n 1162 1e+20
n 1163 1e+20
n 1164 1e+20
n 1165 1e+20
n 1166 1e+20
n 1167 1e+20
n 1168 1e+20
n 1169 1e+20
n 1170 1e+20
n 1171 1e+20
n 1172 1e+20
n 1173 1e+20
n 1174 1e+20
n 1175 1e+20
n 1176 1e+20
n 1177 1e+20
n 1178 1e+20
n 1179 1e+20
n 1180 1e+20
n 1181 1e+20
n 1182 1e+20
n 1183 1e+20
n 1184 1e+20
n 1185 1e+20
n 1186 1e+20
n 1187 1e+20
n 1188 1e+20
n 1189 1e+20
n 1190 1e+20
n 1191 1e+20
n 1192 1e+20
n 1193 1e+20
n 1194 1e+20
n 1195 1e+20
n 1196 1e+20
n 1197 1e+20
n 1198 1e+20
n 1199 1e+20
n 1200 1e+20
n 1201 1e+20
n 1202 1e+20
n 1203 1e+20
n 1204 1e+20
n 1205 1e+20
n 1206 1e+20
n 1207 1e+20
n 1208 1e+20
n 1209 1e+20
n 1210 1e+20
n 1211 1e+20
n 1212 1e+20
n 1213 1e+20
n 1214 1e+20
n 1215 1e+20
n 1216 1e+20
n 1217 1e+20
n 1218 1e+20
n 1219 1e+20
n 1220 1e+20
n 1221 1e+20
n 1222 1e+20
n 1223 1e+20
n 1224 1e+20
n 1225 1e+20
n 1226 1e+20
n 1227 1e+20
n 1228 1e+20
n 1229 1e+20
n 1230 1e+20
n 1231 1e+20
n 1232 1e+20
n 1233 1e+20
n 1234 1e+20
n 1235 1e+20
n 1236 1e+20
n 1237 1e+20
n 1238 1e+20
n 1239 1e+20
n 1240 1e+20
n 1241 1e+20
n 1242 1e+20
n 1243 1e+20
n 1244 1e+20
n 1245 1e+20
n 1246 1e+20
n 1247 1e+20
n 1248 1e+20
n 1249 1e+20
n 1250 1e+20
n 1251 1e+20
n 1252 1e+20
n 1253 1e+20
n 1254 1e+20
n 1255 1e+20
n 1256 1e+20
n 1257 1e+20
n 1258 1e+20
n 1259 1e+20
n 1260 1e+20
n 1261 1e+20
n 1262 1e+20
n 1263 1e+20
n 1264 1e+20
n 1265 1e+20
n 1266 1e+20
n 1267 1e+20
n 1268 1e+20
n 1269 1e+20
n 1270 1e+20
n 1271 1e+20
n 1272 1e+20
n 1273 1e+20
n 1274 1e+20
n 1275 1e+20
n 1276 1e+20
n 1277 1e+20
n 1278 1e+20
n 1279 1e+20
n 1280 1e+20
n 1281 1e+20
n 1282 1e+20
n 1283 1e+20
n 1284 1e+20
n 1285 1e+20
n 1286 1e+20
n 1287 1e+20
n 1288 1e+20
n 1289 1e+20
n 1290 1e+20
n 1291 1e+20
n 1292 1e+20
n 1293 1e+20
n 1294 1e+20
n 1295 1e+20
n 1296 1e+20
n 1297 1e+20
n 1298 1e+20
n 1299 1e+20
n 1300 1e+20
n 1301 1e+20
n 1302 1e+20
n 1303 1e+20
n 1304 1e+20
n 1305 1e+20
n 1306 1e+20
n 1307 1e+20
n 1308 1e+20
n 1309 1e+20
n 1310 1e+20
n 1311 1e+20
n 1312 1e+20
n 1313 1e+20
n 1314 1e+20
n 1315 1e+20
n 1316 1e+20
n 1317 1e+20
n 1318 1e+20
n 1319 1e+20
n 1320 1e+20
n 1321 1e+20
n 1322 1e+20
n 1323 1e+20
e 4 5
e 5 1
e 4 2
e 4 3
e 9 10
e 10 6
e 9 7
e 9 8
e 14 15
e 15 11
e 14 12
e 14 13
e 18 19
e 19 16
e 18 8
e 18 17
e 23 24
e 24 20
e 23 21
e 23 22
e 28 29
e 29 25
e 28 26
e 28 27
e 33 34
e 34 30
e 33 31
e 33 32
e 38 39
e 39 35
e 38 36
e 38 37
e 43 44
e 44 40
e 43 41
e 43 42
e 48 49
e 49 45
e 48 46
e 48 47
e 53 54
e 54 50
e 53 51
e 53 52
e 58 59
e 59 55
e 58 56
e 58 57
e 63 64
e 64 60
e 63 61
e 63 62
e 68 69
e 69 65
e 68 66
e 68 67
e 73 74
e 74 70
e 73 71
e 73 72
e 78 79
e 79 75
e 78 76
e 78 77
e 83 84
e 84 80
e 83 81
e 83 82
e 87 88
e 88 85
e 87 62
e 87 86
e 91 92
e 92 89
e 91 27
e 91 90
e 96 97
e 97 93
e 96 94
e 96 95
e 101 102
e 102 98
e 101 99
e 101 100
e 106 107
e 107 103
e 106 104
e 106 105
e 111 112
e 112 108
e 111 109
e 111 110
e 116 117
e 117 113
e 116 114
e 116 115
e 121 122
e 122 118
e 121 119
e 121 120
e 126 127
e 127 123
e 126 124
e 126 125
e 131 132
e 132 128
e 131 129
e 131 130
e 135 136
e 136 133
e 135 95
e 135 134
e 139 140
e 140 137
e 139 138
e 139 46
e 144 145
e 145 141
e 144 142
e 144 143
e 149 150
e 150 146
e 149 147
e 149 148
e 154 155
e 155 151
e 154 152
e 154 153
e 158 159
e 159 156
e 158 105
e 158 157
e 163 164
e 164 160
e 163 161
e 163 162
e 168 169
e 169 165
e 168 166
e 168 167
e 173 174
e 174 170
e 173 171
e 173 172
e 178 179
e 179 175
e 178 176
e 178 177
e 183 184
e 184 180
e 183 181
e 183 182
e 187 188
e 188 185
e 187 186
e 187 12
e 192 193
e 193 189
e 192 190
e 192 191
e 195 196
e 196 194
e 195 82
e 195 76
e 200 201
e 201 197
e 200 198
e 200 199
e 204 205
e 205 202
e 204 203
e 204 61
e 209 210
e 210 206
e 209 207
e 209 208
e 213 214
e 214 211
e 213 212
e 213 114
e 217 218
e 218 215
e 217 110
e 217 216
e 222 223
e 223 219
e 222 220
e 222 221
e 226 227
e 227 224
e 226 125
e 226 225
e 229 230
e 230 228
e 229 17
e 229 36
e 234 235
e 235 231
e 234 232
e 234 233
e 239 240
e 240 236
e 239 237
e 239 238
e 244 245
e 245 241
e 244 242
e 244 243
e 248 249
e 249 246
e 248 247
e 248 21
e 251 252
e 252 250
e 251 130
e 251 166
e 255 256
e 256 250
e 255 253
e 255 254
e 260 261
e 261 257
e 260 258
e 260 259
e 265 266
e 266 262
e 265 263
e 265 264
e 269 270
e 270 267
e 269 268
e 269 99
e 272 273
e 273 271
e 272 191
e 272 207
e 277 278
e 278 274
e 277 275
e 277 276
e 282 283
e 283 279
e 282 280
e 282 281
e 286 287
e 287 284
e 286 285
e 286 253
e 291 292
e 292 288
e 291 289
e 291 290
e 296 297
e 297 293
e 296 294
e 296 295
e 300 301
e 301 298
e 300 299
e 300 181
e 304 305
e 305 302
e 304 303
e 304 31
e 309 310
e 310 306
e 309 307
e 309 308
e 314 315
e 315 311
e 314 312
e 314 313
e 318 319
e 319 316
e 318 317
e 318 285
e 322 323
e 323 320
e 322 313
e 322 321
e 326 327
e 327 324
e 326 37
e 326 325
e 329 330
e 330 324
e 329 290
e 329 328
e 334 335
e 335 331
e 334 332
e 334 333
e 338 339
e 339 336
e 338 337
e 338 233
e 341 342
e 342 336
e 341 340
e 341 90
e 345 346
e 346 343
e 345 344
e 345 7
e 348 349
e 349 343
e 348 72
e 348 347
e 352 353
e 353 350
e 352 351
e 352 161
e 356 357
e 357 354
e 356 199
e 356 355
e 360 361
e 361 358
e 360 359
e 360 190
e 364 365
e 365 362
e 364 363
e 364 242
e 368 369
e 369 366
e 368 3
e 368 367
e 373 374
e 374 370
e 373 371
e 373 372
e 377 378
e 378 375
e 377 376
e 377 332
e 381 382
e 382 379
e 381 157
e 381 380
e 385 386
e 386 383
e 385 384
e 385 237
e 389 390
e 390 387
e 389 388
e 389 129
e 391 392
e 392 387
e 391 22
e 391 263
e 394 395
e 395 393
e 394 208
e 394 171
e 398 399
e 399 396
e 398 372
e 398 397
e 403 404
e 404 400
e 403 401
e 403 402
e 407 408
e 408 405
e 407 406
e 407 119
e 411 412
e 412 409
e 411 410
e 411 51
e 414 415
e 415 413
e 414 402
e 414 303
e 417 418
e 418 416
e 417 86
e 417 299
e 421 422
e 422 419
e 421 13
e 421 420
e 425 426
e 426 423
e 425 57
e 425 424
e 429 430
e 430 427
e 429 397
e 429 428
e 434 435
e 435 431
e 434 432
e 434 433
e 437 438
e 438 436
e 437 281
e 437 26
e 441 442
e 442 439
e 441 77
e 441 440
e 444 445
e 445 443
e 444 238
e 444 232
e 448 449
e 449 446
e 448 182
e 448 447
e 451 452
e 452 450
e 451 221
e 451 152
e 455 456
e 456 453
e 455 148
e 455 454
e 459 460
e 460 457
e 459 458
e 459 66
e 464 465
e 465 461
e 464 462
e 464 463
e 468 469
e 469 466
e 468 120
e 468 467
e 472 473
e 473 470
e 472 225
e 472 471
e 476 477
e 477 474
e 476 475
e 476 94
e 480 481
e 481 478
e 480 479
e 480 432
e 484 485
e 485 482
e 484 483
e 484 458
e 487 488
e 488 486
e 487 420
e 487 351
e 491 492
e 492 489
e 491 490
e 491 247
e 494 495
e 495 493
e 494 367
e 494 483
e 497 498
e 498 496
e 497 162
e 497 104
e 502 503
e 503 499
e 502 500
e 502 501
e 505 506
e 506 504
e 505 100
e 505 344
e 509 510
e 510 507
e 509 508
e 509 307
e 513 514
e 514 511
e 513 471
e 513 512
e 517 518
e 518 515
e 517 440
e 517 516
e 520 521
e 521 519
e 520 276
e 520 363
e 524 525
e 525 522
e 524 516
e 524 523
e 529 530
e 530 526
e 529 527
e 529 528
e 534 535
e 535 531
e 534 532
e 534 533
e 538 539
e 539 536
e 538 433
e 538 537
e 542 543
e 543 540
e 542 541
e 542 220
e 546 547
e 547 544
e 546 545
e 546 268
e 549 550
e 550 548
e 549 523
e 549 138
e 554 555
e 555 551
e 554 552
e 554 553
e 558 559
e 559 556
e 558 321
e 558 557
e 562 563
e 563 560
e 562 561
e 562 406
e 565 566
e 566 564
e 565 32
e 565 176
e 568 569
e 569 567
e 568 167
e 568 545
e 571 572
e 572 570
e 571 454
e 571 317
e 575 576
e 576 573
e 575 259
e 575 574
e 578 579
e 579 577
e 578 67
e 578 479
e 582 583
e 583 580
e 582 581
e 582 359
e 585 586
e 586 584
e 585 177
e 585 410
e 588 589
e 589 587
e 588 501
e 588 541
e 591 592
e 592 590
e 591 347
e 591 552
e 595 596
e 596 593
e 595 594
e 595 527
e 600 601
e 601 597
e 600 598
e 600 599
e 603 604
e 604 602
e 603 424
e 603 500
e 607 608
e 608 605
e 607 606
e 607 56
e 611 612
e 612 609
e 611 610
e 611 462
e 613 614
e 614 609
e 613 380
e 613 212
e 616 617
e 617 615
e 616 216
e 616 275
e 619 620
e 620 618
e 619 447
e 619 561
e 623 624
e 624 621
e 623 622
e 623 388
e 627 628
e 628 625
e 627 428
e 627 626
e 630 631
e 631 629
e 630 512
e 630 203
e 634 635
e 635 632
e 634 328
e 634 633
e 638 639
e 639 636
e 638 637
e 638 610
e 641 642
e 642 640
e 641 333
e 641 622
e 644 645
e 645 643
e 644 599
e 644 147
e 648 649
e 649 646
e 648 647
e 648 401
e 651 652
e 652 650
e 651 528
e 651 475
e 654 655
e 655 653
e 654 467
e 654 109
e 657 658
e 658 656
e 657 153
e 657 258
e 660 661
e 661 659
e 660 633
e 660 371
e 663 664
e 664 662
e 663 553
e 663 289
e 668 669
e 669 665
e 668 666
e 668 667
e 671 672
e 672 670
e 671 52
e 671 2
e 674 675
e 675 673
e 674 537
e 674 666
e 678 679
e 679 676
e 678 677
e 678 124
e 681 682
e 682 680
e 681 134
e 681 71
e 685 686
e 686 683
e 685 243
e 685 684
e 690 691
e 691 687
e 690 688
e 690 689
e 693 694
e 694 692
e 693 254
e 693 594
e 697 698
e 698 695
e 697 696
e 697 508
e 700 701
e 701 699
e 700 574
e 700 581
e 703 704
e 704 702
e 703 172
e 703 384
e 706 707
e 707 705
e 706 115
e 706 688
e 710 711
e 711 708
e 710 709
e 710 198
e 714 715
e 715 712
e 714 713
e 714 709
e 717 718
e 718 716
e 717 143
e 717 41
e 720 721
e 721 719
e 720 533
e 720 647
e 723 724
e 724 722
e 723 264
e 723 606
e 726 727
e 727 725
e 726 557
e 726 637
e 729 730
e 730 728
e 729 684
e 729 186
e 732 733
e 733 731
e 732 295
e 732 81
e 735 736
e 736 734
e 735 463
e 735 376
e 737 738
e 738 734
e 737 42
e 737 598
e 740 741
e 741 739
e 740 689
e 740 490
e 743 744
e 744 742
e 743 667
e 743 142
e 746 747
e 747 745
e 746 47
e 746 532
e 749 750
e 750 748
e 749 308
e 749 312
e 751 752
e 752 748
e 751 626
e 751 677
e 754 755
e 755 753
e 754 325
e 754 280
e 757 758
e 758 756
e 757 355
e 757 294
e 1 759
e 2 759
e 1 760
e 3 760
e 6 761
e 7 761
e 6 762
e 8 762
e 11 763
e 12 763
e 11 764
e 13 764
e 16 765
e 8 765
e 16 766
e 17 766
e 20 767
e 21 767
e 20 768
e 22 768
e 25 769
e 26 769
e 25 770
e 27 770
e 30 771
e 31 771
e 30 772
e 32 772
e 35 773
e 36 773
e 35 774
e 37 774
e 40 775
e 41 775
e 40 776
e 42 776
e 45 777
e 46 777
e 45 778
e 47 778
e 50 779
e 51 779
e 50 780
e 52 780
e 55 781
e 56 781
e 55 782
e 57 782
e 60 783
e 61 783
e 60 784
e 62 784
e 65 785
e 66 785
e 65 786
e 67 786
e 70 787
e 71 787
e 70 788
e 72 788
e 75 789
e 76 789
e 75 790
e 77 790
e 80 791
e 81 791
e 80 792
e 82 792
e 85 793
e 62 793
e 85 794
e 86 794
e 89 795
e 27 795
e 89 796
e 90 796
e 93 797
e 94 797
e 93 798
e 95 798
e 98 799
e 99 799
e 98 800
e 100 800
e 103 801
e 104 801
e 103 802
e 105 802
e 108 803
e 109 803
e 108 804
e 110 804
e 113 805
e 114 805
e 113 806
e 115 806
e 118 807
e 119 807
e 118 808
e 120 808
e 123 809
e 124 809
e 123 810
e 125 810
e 128 811
e 129 811
e 128 812
e 130 812
e 133 813
e 95 813
e 133 814
e 134 814
e 137 815
e 138 815
e 137 816
e 46 816
e 141 817
e 142 817
e 141 818
e 143 818
e 146 819
e 147 819
e 146 820
e 148 820
e 151 821
e 152 821
e 151 822
e 153 822
e 156 823
e 105 823
e 156 824
e 157 824
e 160 825
e 161 825
e 160 826
e 162 826
e 165 827
e 166 827
e 165 828
e 167 828
e 170 829
e 171 829
e 170 830
e 172 830
e 175 831
e 176 831
e 175 832
e 177 832
e 180 833
e 181 833
e 180 834
e 182 834
e 185 835
e 186 835
e 185 836
e 12 836
e 189 837
e 190 837
e 189 838
e 191 838
e 194 839
e 82 839
e 194 840
e 76 840
e 197 841
e 198 841
e 197 842
e 199 842
e 202 843
e 203 843
e 202 844
e 61 844
e 206 845
e 207 845
e 206 846
e 208 846
e 211 847
e 212 847
e 211 848
e 114 848
e 215 849
e 110 849
e 215 850
e 216 850
e 219 851
e 220 851
e 219 852
e 221 852
e 224 853
e 125 853
e 224 854
e 225 854
e 228 855
e 17 855
e 228 856
e 36 856
e 231 857
e 232 857
e 231 858
e 233 858
e 236 859
e 237 859
e 236 860
e 238 860
e 241 861
e 242 861
e 241 862
e 243 862
e 246 863
e 247 863
e 246 864
e 21 864
e 250 865
e 130 865
e 250 866
e 166 866
e 250 867
e 253 867
e 250 868
e 254 868
e 257 869
e 258 869
e 257 870
e 259 870
e 262 871
e 263 871
e 262 872
e 264 872
e 267 873
e 268 873
e 267 874
e 99 874
e 271 875
e 191 875
e 271 876
e 207 876
e 274 877
e 275 877
e 274 878
e 276 878
e 279 879
e 280 879
e 279 880
e 281 880
e 284 881
e 285 881
e 284 882
e 253 882
e 288 883
e 289 883
e 288 884
e 290 884
e 293 885
e 294 885
e 293 886
e 295 886
e 298 887
e 299 887
e 298 888
e 181 888
e 302 889
e 303 889
e 302 890
e 31 890
e 306 891
e 307 891
e 306 892
e 308 892
e 311 893
e 312 893
e 311 894
e 313 894
e 316 895
e 317 895
e 316 896
e 285 896
e 320 897
e 313 897
e 320 898
e 321 898
e 324 899
e 37 899
e 324 900
e 325 900
e 324 901
e 290 901
e 324 902
e 328 902
e 331 903
e 332 903
e 331 904
e 333 904
e 336 905
e 90 905
e 336 906
e 233 906
e 343 907
e 344 907
e 343 908
e 7 908
e 343 909
e 72 909
e 343 910
e 347 910
e 350 911
e 351 911
e 350 912
e 161 912
e 354 913
e 199 913
e 354 914
e 355 914
e 358 915
e 359 915
e 358 916
e 190 916
e 362 917
e 363 917
e 362 918
e 242 918
e 366 919
e 3 919
e 366 920
e 367 920
e 370 921
e 371 921
e 370 922
e 372 922
e 375 923
e 376 923
e 375 924
e 332 924
e 379 925
e 157 925
e 379 926
e 380 926
e 383 927
e 384 927
e 383 928
e 237 928
e 387 929
e 388 929
e 387 930
e 129 930
e 387 931
e 22 931
e 387 932
e 263 932
e 393 933
e 208 933
e 393 934
e 171 934
e 396 935
e 372 935
e 396 936
e 397 936
e 937 938
e 696 938
e 400 939
e 401 939
e 400 940
e 402 940
e 405 941
e 406 941
e 405 942
e 119 942
e 409 943
e 410 943
e 409 944
e 51 944
e 413 945
e 402 945
e 413 946
e 303 946
e 416 947
e 86 947
e 416 948
e 299 948
e 419 949
e 13 949
e 419 950
e 420 950
e 423 951
e 57 951
e 423 952
e 424 952
e 427 953
e 397 953
e 427 954
e 428 954
e 431 955
e 432 955
e 431 956
e 433 956
e 436 957
e 281 957
e 436 958
e 26 958
e 439 959
e 77 959
e 439 960
e 440 960
e 443 961
e 238 961
e 443 962
e 232 962
e 446 963
e 182 963
e 446 964
e 447 964
e 450 965
e 221 965
e 450 966
e 152 966
e 453 967
e 148 967
e 453 968
e 454 968
e 457 969
e 458 969
e 457 970
e 66 970
e 461 971
e 462 971
e 461 972
e 463 972
e 466 973
e 120 973
e 466 974
e 467 974
e 470 975
e 225 975
e 470 976
e 471 976
e 474 977
e 475 977
e 474 978
e 94 978
e 478 979
e 479 979
e 478 980
e 432 980
e 482 981
e 483 981
e 482 982
e 458 982
e 486 983
e 420 983
e 486 984
e 351 984
e 489 985
e 490 985
e 489 986
e 247 986
e 493 987
e 367 987
e 493 988
e 483 988
e 496 989
e 162 989
e 496 990
e 104 990
e 499 991
e 500 991
e 499 992
e 501 992
e 504 993
e 100 993
e 504 994
e 344 994
e 507 995
e 508 995
e 507 996
e 307 996
e 511 997
e 471 997
e 511 998
e 512 998
e 515 999
e 440 999
e 515 1000
e 516 1000
e 519 1001
e 276 1001
e 519 1002
e 363 1002
e 522 1003
e 516 1003
e 522 1004
e 523 1004
e 526 1005
e 527 1005
e 526 1006
e 528 1006
e 531 1007
e 532 1007
e 531 1008
e 533 1008
e 536 1009
e 433 1009
e 536 1010
e 537 1010
e 540 1011
e 541 1011
e 540 1012
e 220 1012
e 544 1013
e 545 1013
e 544 1014
e 268 1014
e 548 1015
e 523 1015
e 548 1016
e 138 1016
e 551 1017
e 552 1017
e 551 1018
e 553 1018
e 556 1019
e 321 1019
e 556 1020
e 557 1020
e 560 1021
e 561 1021
e 560 1022
e 406 1022
e 564 1023
e 32 1023
e 564 1024
e 176 1024
e 567 1025
e 167 1025
e 567 1026
e 545 1026
e 570 1027
e 454 1027
e 570 1028
e 317 1028
e 573 1029
e 259 1029
e 573 1030
e 574 1030
e 577 1031
e 67 1031
e 577 1032
e 479 1032
e 580 1033
e 581 1033
e 580 1034
e 359 1034
e 584 1035
e 177 1035
e 584 1036
e 410 1036
e 587 1037
e 501 1037
e 587 1038
e 541 1038
e 590 1039
e 347 1039
e 590 1040
e 552 1040
e 593 1041
e 594 1041
e 593 1042
e 527 1042
e 597 1043
e 598 1043
e 597 1044
e 599 1044
e 602 1045
e 424 1045
e 602 1046
e 500 1046
e 605 1047
e 606 1047
e 605 1048
e 56 1048
e 609 1049
e 610 1049
e 609 1050
e 462 1050
e 609 1051
e 380 1051
e 609 1052
e 212 1052
e 615 1053
e 216 1053
e 615 1054
e 275 1054
e 618 1055
e 447 1055
e 618 1056
e 561 1056
e 621 1057
e 622 1057
e 621 1058
e 388 1058
e 625 1059
e 428 1059
e 625 1060
e 626 1060
e 629 1061
e 512 1061
e 629 1062
e 203 1062
e 632 1063
e 328 1063
e 632 1064
e 633 1064
e 636 1065
e 637 1065
e 636 1066
e 610 1066
e 640 1067
e 333 1067
e 640 1068
e 622 1068
e 643 1069
e 599 1069
e 643 1070
e 147 1070
e 646 1071
e 647 1071
e 646 1072
e 401 1072
e 650 1073
e 528 1073
e 650 1074
e 475 1074
e 653 1075
e 467 1075
e 653 1076
e 109 1076
e 656 1077
e 153 1077
e 656 1078
e 258 1078
e 659 1079
e 633 1079
e 659 1080
e 371 1080
e 662 1081
e 553 1081
e 662 1082
e 289 1082
e 665 1083
e 666 1083
e 665 1084
e 667 1084
e 670 1085
e 52 1085
e 670 1086
e 2 1086
e 673 1087
e 537 1087
e 673 1088
e 666 1088
e 676 1089
e 677 1089
e 676 1090
e 124 1090
e 680 1091
e 134 1091
e 680 1092
e 71 1092
e 683 1093
e 243 1093
e 683 1094
e 684 1094
e 687 1095
e 688 1095
e 687 1096
e 689 1096
e 692 1097
e 254 1097
e 692 1098
e 594 1098
e 695 1099
e 696 1099
e 695 1100
e 508 1100
e 699 1101
e 574 1101
e 699 1102
e 581 1102
e 702 1103
e 172 1103
e 702 1104
e 384 1104
e 705 1105
e 115 1105
e 705 1106
e 688 1106
e 708 1107
e 709 1107
e 708 1108
e 198 1108
e 712 1109
e 713 1109
e 712 1110
e 709 1110
e 716 1111
e 143 1111
e 716 1112
e 41 1112
e 719 1113
e 533 1113
e 719 1114
e 647 1114
e 722 1115
e 264 1115
e 722 1116
e 606 1116
e 725 1117
e 557 1117
e 725 1118
e 637 1118
e 728 1119
e 684 1119
e 728 1120
e 186 1120
e 731 1121
e 295 1121
e 731 1122
e 81 1122
e 734 1123
e 463 1123
e 734 1124
e 376 1124
e 734 1125
e 42 1125
e 734 1126
e 598 1126
e 739 1127
e 689 1127
e 739 1128
e 490 1128
e 742 1129
e 667 1129
e 742 1130
e 142 1130
e 745 1131
e 47 1131
e 745 1132
e 532 1132
e 748 1133
e 308 1133
e 748 1134
e 312 1134
e 748 1135
e 626 1135
e 748 1136
e 677 1136
e 1137 1138
e 713 1138
e 753 1139
e 325 1139
e 753 1140
e 280 1140
e 756 1141
e 355 1141
e 756 1142
e 294 1142
e 696 1143
e 508 1143
e 508 1144
e 307 1144
e 307 1145
e 308 1145
e 308 1146
e 312 1146
e 312 1147
e 313 1147
e 313 1148
e 321 1148
e 321 1149
e 557 1149
e 557 1150
e 637 1150
e 637 1151
e 610 1151
e 610 1152
e 462 1152
e 462 1153
e 463 1153
e 463 1154
e 376 1154
e 376 1155
e 332 1155
e 332 1156
e 333 1156
e 333 1157
e 622 1157
e 622 1158
e 388 1158
e 388 1159
e 129 1159
e 129 1160
e 130 1160
e 130 1161
e 166 1161
e 166 1162
e 167 1162
e 167 1163
e 545 1163
e 545 1164
e 268 1164
e 268 1165
e 99 1165
e 99 1166
e 100 1166
e 100 1167
e 344 1167
e 344 1168
e 7 1168
e 7 1169
e 8 1169
e 8 1170
e 17 1170
e 17 1171
e 36 1171
e 36 1172
e 37 1172
e 37 1173
e 325 1173
e 325 1174
e 280 1174
e 280 1175
e 281 1175
e 281 1176
e 26 1176
e 26 1177
e 27 1177
e 27 1178
e 90 1178
e 713 1179
e 709 1179
e 709 1180
e 198 1180
e 198 1181
e 199 1181
e 199 1182
e 355 1182
e 355 1183
e 294 1183
e 294 1184
e 295 1184
e 295 1185
e 81 1185
e 81 1186
e 82 1186
e 82 1187
e 76 1187
e 76 1188
e 77 1188
e 440 1189
e 516 1189
e 516 1190
e 523 1190
e 523 1191
e 138 1191
e 138 1192
e 46 1192
e 46 1193
e 47 1193
e 47 1194
e 532 1194
e 532 1195
e 533 1195
e 533 1196
e 647 1196
e 647 1197
e 401 1197
e 401 1198
e 402 1198
e 402 1199
e 303 1199
e 303 1200
e 31 1200
e 31 1201
e 32 1201
e 32 1202
e 176 1202
e 176 1203
e 177 1203
e 177 1204
e 410 1204
e 410 1205
e 51 1205
e 51 1206
e 52 1206
e 52 1207
e 2 1207
e 2 1208
e 3 1208
e 3 1209
e 367 1209
e 458 1210
e 66 1210
e 66 1211
e 67 1211
e 67 1212
e 479 1212
e 479 1213
e 432 1213
e 433 1214
e 537 1214
e 537 1215
e 666 1215
e 666 1216
e 667 1216
e 667 1217
e 142 1217
e 142 1218
e 143 1218
e 143 1219
e 41 1219
e 41 1220
e 42 1220
e 42 1221
e 598 1221
e 598 1222
e 599 1222
e 599 1223
e 147 1223
e 147 1224
e 148 1224
e 148 1225
e 454 1225
e 454 1226
e 317 1226
e 317 1227
e 285 1227
e 285 1228
e 253 1228
e 253 1229
e 254 1229
e 254 1230
e 594 1230
e 594 1231
e 527 1231
e 527 1232
e 528 1232
e 528 1233
e 475 1233
e 475 1234
e 94 1234
e 94 1235
e 95 1235
e 95 1236
e 134 1236
e 71 1237
e 72 1237
e 72 1238
e 347 1238
e 347 1239
e 552 1239
e 552 1240
e 553 1240
e 553 1241
e 289 1241
e 289 1242
e 290 1242
e 290 1243
e 328 1243
e 328 1244
e 633 1244
e 633 1245
e 371 1245
e 371 1246
e 372 1246
e 372 1247
e 397 1247
e 397 1248
e 428 1248
e 428 1249
e 626 1249
e 626 1250
e 677 1250
e 677 1251
e 124 1251
e 124 1252
e 125 1252
e 125 1253
e 225 1253
e 225 1254
e 471 1254
e 471 1255
e 512 1255
e 512 1256
e 203 1256
e 203 1257
e 61 1257
e 61 1258
e 62 1258
e 62 1259
e 86 1259
e 86 1260
e 299 1260
e 299 1261
e 181 1261
e 181 1262
e 182 1262
e 182 1263
e 447 1263
e 447 1264
e 561 1264
e 561 1265
e 406 1265
e 406 1266
e 119 1266
e 119 1267
e 120 1267
e 120 1268
e 467 1268
e 467 1269
e 109 1269
e 109 1270
e 110 1270
e 110 1271
e 216 1271
e 216 1272
e 275 1272
e 275 1273
e 276 1273
e 276 1274
e 363 1274
e 363 1275
e 242 1275
e 242 1276
e 243 1276
e 243 1277
e 684 1277
e 684 1278
e 186 1278
e 186 1279
e 12 1279
e 12 1280
e 13 1280
e 13 1281
e 420 1281
e 420 1282
e 351 1282
e 351 1283
e 161 1283
e 161 1284
e 162 1284
e 162 1285
e 104 1285
e 104 1286
e 105 1286
e 105 1287
e 157 1287
e 157 1288
e 380 1288
e 380 1289
e 212 1289
e 212 1290
e 114 1290
e 114 1291
e 115 1291
e 115 1292
e 688 1292
e 688 1293
e 689 1293
e 689 1294
e 490 1294
e 490 1295
e 247 1295
e 247 1296
e 21 1296
e 21 1297
e 22 1297
e 22 1298
e 263 1298
e 263 1299
e 264 1299
e 264 1300
e 606 1300
e 606 1301
e 56 1301
e 56 1302
e 57 1302
e 57 1303
e 424 1303
e 424 1304
e 500 1304
e 500 1305
e 501 1305
e 501 1306
e 541 1306
e 541 1307
e 220 1307
e 220 1308
e 221 1308
e 152 1309
e 153 1309
e 153 1310
e 258 1310
e 258 1311
e 259 1311
e 259 1312
e 574 1312
e 574 1313
e 581 1313
e 581 1314
e 359 1314
e 359 1315
e 190 1315
e 190 1316
e 191 1316
e 191 1317
e 207 1317
e 207 1318
e 208 1318
e 208 1319
e 171 1319
e 172 1320
e 384 1320
e 384 1321
e 237 1321
e 237 1322
e 238 1322
e 238 1323
e 232 1323
